FILENAME:   ../instances_new/flowersnark/flowersnark15_3.cip
SETTINGS:   settings_isopr_ostrowskidynamicbranching_avoidsubtreenodes
TIMELIMIT:  7200
OUTPUTNAME: final_flowersnark__settings_isopr_ostrowskidynamicbranching_avoidsubtreenodes__1__
BINNAME:    bin/symmetries.linux.x86_64.gnu.opt.cpx
BASENAME:   flowersnark15_3.cip
SEED:       1
@01 ../instances_new/flowersnark/flowersnark15_3.cip ===========
@02 flowersnark15_3.cip
@03 1686559553
SCIP version 8.0.2 [precision: 8 byte] [memory: block] [mode: optimized] [LP solver: CPLEX 20.1.0.0] [GitHash: 5f0473c]
Copyright (C) 2002-2022 Konrad-Zuse-Zentrum fuer Informationstechnik Berlin (ZIB)

Symmetry handling routines - (c) Marc Pfetsch, Thomas Rehn, Christopher Hojny.
[GitHash: a1587cb]


Turned off presolver <gateextraction>.
reading parameter file <../settings/settings_isopr_ostrowskidynamicbranching_avoidsubtreenodes.set> ...

Changed settings:
limits/time = 7200
limits/restarts = 0
randomization/randomseedshift = 1
constraints/orbitope/sepafreq = -1
constraints/orbitope/propfreq = 1
presolving/gateextraction/maxrounds = 0
propagating/isoprune/avoidsubtreenodes = TRUE
useisoprune = TRUE


solving problem ...

original problem has 270 variables (270 bin, 0 int, 0 impl, 0 cont) and 270 constraints
presolving:
(round 1, exhaustive) 0 del vars, 0 del conss, 0 add conss, 0 chg bounds, 0 chg sides, 0 chg coeffs, 270 upgd conss, 0 impls, 270 clqs
   (0.0s) probing: 51/270 (18.9%) - 0 fixings, 0 aggregations, 0 implications, 0 bound changes
   (0.0s) probing aborted: 50/50 successive totally useless probings
Required symmetry:			(1 bin, 0 int, 0 cont); (fixed: 0 bin, 1 int, 0 cont)
Time for symmetry detection:		0.00 	(matrix graph, 540 nodes, 810 edges)
Number of generators:			5 	(max: 1500)
Order of symmetry group:		360
Log10 of symmetry group order:		2.6
Number of vars moved by some symmetry:	270
Total time for symmetry detection:	0.00

Turned off presolver <domcol>.
Turned off presolver <components>.

presolving (2 rounds: 2 fast, 2 medium, 2 exhaustive):
 0 deleted vars, 0 deleted constraints, 0 added constraints, 0 tightened bounds, 0 added holes, 0 changed sides, 0 changed coefficients
 0 implications, 270 cliques
presolved problem has 270 variables (270 bin, 0 int, 0 impl, 0 cont) and 271 constraints
    270 constraints of type <setppc>
      1 constraints of type <symmetries>
transformed objective value is always integral (scale: 1)
Presolving Time: 0.00

 time | node  | left  |LP iter|LP it/n|mem/heur|mdpt |frac |vars |cons |cols |rows |cuts |confs|strbr|  dualbound   | primalbound  |  gap   
  0.0s|     1 |     0 |    29 |     - |  4192k |   0 | 140 | 270 | 292 | 270 | 270 |   0 |  20 |   0 | 0.000000e+00 |      --      |    Inf 
  0.1s|     1 |     2 |   198 |     - |  5151k |   0 | 140 | 270 | 494 | 270 | 270 |   0 |  22 |  12 | 0.000000e+00 |      --      |    Inf 
  0.3s|   100 |    14 |  3416 |  32.8 |  7078k |  15 |  40 | 270 | 699 | 270 | 270 |   0 | 252 |  12 | 0.000000e+00 |      --      |    Inf 
  0.5s|   200 |     7 |  4900 |  23.8 |  8521k |  15 |  46 | 270 | 988 | 270 | 270 |   0 | 544 |  12 | 0.000000e+00 |      --      |    Inf 
  0.7s|   300 |    21 |  8005 |  26.2 |  8838k |  15 |   - | 270 |1321 | 270 | 270 |   0 | 877 |  12 | 0.000000e+00 |      --      |    Inf 
  0.8s|   400 |    18 | 10715 |  26.4 |  9832k |  16 |  76 | 270 |1627 | 270 | 270 |   0 |1186 |  12 | 0.000000e+00 |      --      |    Inf 
  1.2s|   500 |    19 | 13938 |  27.6 |    11M |  16 |  28 | 270 |1855 | 270 | 270 |   0 |1416 |  12 | 0.000000e+00 |      --      |    Inf 
  1.7s|   600 |    26 | 17238 |  28.5 |    12M |  16 |   - | 270 |2077 | 270 | 270 |   0 |1638 |  12 | 0.000000e+00 |      --      |    Inf 
  2.0s|   700 |    38 | 21009 |  29.8 |    13M |  17 |  58 | 270 |2307 | 270 | 270 |   0 |1868 |  12 | 0.000000e+00 |      --      |    Inf 
  2.1s|   800 |    35 | 23825 |  29.6 |    15M |  17 |   - | 270 |2553 |   0 |   0 |   0 |2131 |  12 | 0.000000e+00 |      --      |    Inf 
  2.3s|   900 |    44 | 26318 |  29.1 |    16M |  17 |   - | 270 |2768 |   0 |   0 |   0 |2355 |  12 | 0.000000e+00 |      --      |    Inf 
  2.5s|  1000 |    40 | 28937 |  28.8 |    18M |  17 |  74 | 270 |2953 | 270 | 270 |   0 |2568 |  12 | 0.000000e+00 |      --      |    Inf 
  2.6s|  1100 |    27 | 31536 |  28.5 |    18M |  17 | 128 | 270 |3087 | 270 | 270 |   0 |2809 |  12 | 0.000000e+00 |      --      |    Inf 
  2.8s|  1200 |    23 | 33981 |  28.2 |    18M |  17 |   - | 270 |3216 |   0 |   0 |   0 |3022 |  12 | 0.000000e+00 |      --      |    Inf 
  2.9s|  1300 |    21 | 36614 |  28.1 |    18M |  18 |   - | 270 |3190 | 270 | 270 |   0 |3204 |  12 | 0.000000e+00 |      --      |    Inf 
 time | node  | left  |LP iter|LP it/n|mem/heur|mdpt |frac |vars |cons |cols |rows |cuts |confs|strbr|  dualbound   | primalbound  |  gap   
  3.0s|  1400 |    13 | 39284 |  28.0 |    19M |  18 | 126 | 270 |3166 | 270 | 270 |   0 |3400 |  12 | 0.000000e+00 |      --      |    Inf 
  3.2s|  1500 |    23 | 42359 |  28.1 |    20M |  18 |   - | 270 |3293 | 270 | 270 |   0 |3743 |  12 | 0.000000e+00 |      --      |    Inf 
  3.3s|  1600 |    11 | 45143 |  28.1 |    20M |  18 |   - | 270 |3295 |   0 |   0 |   0 |4011 |  12 | 0.000000e+00 |      --      |    Inf 
  3.5s|  1700 |     5 | 48357 |  28.4 |    20M |  18 |  90 | 270 |3303 | 270 | 270 |   0 |4239 |  12 | 0.000000e+00 |      --      |    Inf 

SCIP Status        : problem is solved [infeasible]
Solving Time (sec) : 3.50
Solving Nodes      : 1721
Primal Bound       : +1.00000000000000e+20 (0 solutions)
Dual Bound         : +1.00000000000000e+20
Gap                : 0.00 %

Number of variables fixed to 0 by isomorphism pruning:	   147
Number of variables fixed to 1 by isomorphism pruning:	     3
@04 1686559557
